1 18
2 5
3 19
4 15
5 7
6 1
7 8
8 5
9 12
10 13
11 6
12 1
13 4
14 3
15 3
16 1
17 6
18 10
19 4
20 1
21 7
22 1
23 10
24 4
25 1
26 15
27 4
28 17
29 9
30 2
31 18
32 1
33 17
34 4
35 1
36 4
37 3
38 2
39 9
40 2
41 3
42 10
43 3
44 5
45 4
46 15
47 1
48 3
49 11
50 1
51 9
52 9
53 7
54 10
55 7
56 18
57 1
58 15
59 19
60 1
61 3
62 5
63 1
64 4
65 3
66 4
67 4
68 1
69 5
70 1
71 2
72 3
73 3
74 1
75 2
76 2
77 4
78 2
79 5
80 1
81 1
82 4
83 3
84 3
85 3
86 17
87 17
88 3
89 18
90 8
91 9
92 2
93 7
94 17
95 1
96 4
97 3
98 4
99 9
100 2
101 16
102 18
103 1
104 15
105 1
106 4
107 3
108 2
109 1
110 1
111 7
112 7
113 13
114 4
115 3
116 8
117 17
118 6
119 13
120 5
121 19
122 1
123 9
124 2
125 14
126 3
127 18
128 10
129 1
130 2
131 2
132 4
133 2
134 3
135 1
136 1
137 3
138 1
139 2
140 16
141 10
142 16
143 15
144 19
145 17
146 5
147 8
148 10
149 16
150 13
151 15
152 4
153 12
154 3
155 2
156 4
157 6
158 14
159 4
160 4
161 3
162 1
163 2
164 17
165 17
166 15
167 2
168 10
169 2
170 6
171 18
172 5
173 4
174 7
175 7
176 6
177 3
178 1
179 5
180 4
181 8
182 17
183 17
184 5
185 2
186 1
187 1
188 16
189 15
190 15
191 11
192 7
193 18
194 5
195 3
196 3
197 6
198 6
199 2
200 1
201 12
202 4
203 1
204 1
205 1
206 1
207 1
208 3
209 6
210 1
211 1
212 1
213 1
214 3
215 3
216 1
217 18
218 9
219 5
220 2
221 6
222 17
223 2
224 10
225 7
226 19
227 9
228 4
229 17
230 1
231 10
232 3
233 1
234 2
235 2
236 2
237 3
238 3
239 7
240 11
241 3
242 15
243 6
244 9
245 10
246 2
247 10
248 11
249 1
250 11
251 11
252 12
253 11
254 11
255 12
256 11
257 12
258 16
259 2
260 2
261 18
262 8
263 17
264 2
265 5
266 19
267 18
268 3
269 2
270 3
271 14
272 5
273 1
274 7
275 10
276 18
277 15
278 16
279 14
280 4
281 2
282 1
283 1
284 4
285 1
286 17
287 18
288 18
289 19
290 19
291 3
292 19
293 19
294 18
295 13
296 19
297 7
298 19
299 9
300 18
301 13
302 1
303 17
304 3
305 1
306 1
307 3
308 2
309 1
310 1
311 2
312 2
313 1
314 2
315 9
316 17
317 2
318 13
319 13
320 8
321 6
322 9
323 6
324 16
325 2
326 2
327 18
328 8
329 1
330 1
331 9
332 4
333 6
334 12
335 14
336 1
337 15
338 13
339 3
340 17
341 7
342 14
343 13
344 1
345 2
346 4
347 2
348 1
349 2
350 3
351 2
352 1
353 10
354 13
355 1
356 7
357 4
358 2
359 8
360 1
361 10
362 3
363 4
364 5
365 5
366 8
367 4
368 1
369 1
370 8
371 7
372 14
373 1
374 3
375 2
376 1
377 17
378 7
379 16
380 19
381 1
382 17
383 18
384 1
385 9
386 19
387 9
388 13
389 6
390 3
391 14
392 14
393 14
394 14
395 15
396 14
397 14
398 14
399 17
400 3
401 17
402 15
403 6
404 4
405 1
406 17
407 3
408 3
409 2
410 1
411 3
412 2
413 4
414 4
415 2
416 4
417 1
418 18
419 1
420 10
421 3
422 5
423 1
424 3
425 14
426 3
427 2
428 1
429 4
430 7
431 13
432 17
433 9
434 13
435 16
436 6
437 14
438 10
439 18
440 5
441 3
442 17
443 1
444 1
445 15
446 10
447 1
448 2
449 9
450 7
451 18
452 19
453 4
454 11
455 4
456 1
457 7
458 5
459 2
460 3
461 9
